60

 0   1   2   3   4   5   6   7   8   9   1   2   3   4   5   6   7   8   9  10   2   3   4   5   6   7   8   9  10  11   3   4   5   6   7   8   9  10  11  12   4   5   6   7   8   9  10  11  12  13   5   6   7   8   9  10  11  12  13  14  
 1   0   1   2   3   4   5   6   7   8   2   1   2   3   4   5   6   7   8   9   3   2   3   4   5   6   7   8   9  10   4   3   4   5   6   7   8   9  10  11   5   4   5   6   7   8   9  10  11  12   6   5   6   7   8   9  10  11  12  13  
 2   1   0   1   2   3   4   5   6   7   3   2   1   2   3   4   5   6   7   8   4   3   2   3   4   5   6   7   8   9   5   4   3   4   5   6   7   8   9  10   6   5   4   5   6   7   8   9  10  11   7   6   5   6   7   8   9  10  11  12  
 3   2   1   0   1   2   3   4   5   6   4   3   2   1   2   3   4   5   6   7   5   4   3   2   3   4   5   6   7   8   6   5   4   3   4   5   6   7   8   9   7   6   5   4   5   6   7   8   9  10   8   7   6   5   6   7   8   9  10  11  
 4   3   2   1   0   1   2   3   4   5   5   4   3   2   1   2   3   4   5   6   6   5   4   3   2   3   4   5   6   7   7   6   5   4   3   4   5   6   7   8   8   7   6   5   4   5   6   7   8   9   9   8   7   6   5   6   7   8   9  10  
 5   4   3   2   1   0   1   2   3   4   6   5   4   3   2   1   2   3   4   5   7   6   5   4   3   2   3   4   5   6   8   7   6   5   4   3   4   5   6   7   9   8   7   6   5   4   5   6   7   8  10   9   8   7   6   5   6   7   8   9  
 6   5   4   3   2   1   0   1   2   3   7   6   5   4   3   2   1   2   3   4   8   7   6   5   4   3   2   3   4   5   9   8   7   6   5   4   3   4   5   6  10   9   8   7   6   5   4   5   6   7  11  10   9   8   7   6   5   6   7   8  
 7   6   5   4   3   2   1   0   1   2   8   7   6   5   4   3   2   1   2   3   9   8   7   6   5   4   3   2   3   4  10   9   8   7   6   5   4   3   4   5  11  10   9   8   7   6   5   4   5   6  12  11  10   9   8   7   6   5   6   7  
 8   7   6   5   4   3   2   1   0   1   9   8   7   6   5   4   3   2   1   2  10   9   8   7   6   5   4   3   2   3  11  10   9   8   7   6   5   4   3   4  12  11  10   9   8   7   6   5   4   5  13  12  11  10   9   8   7   6   5   6  
 9   8   7   6   5   4   3   2   1   0  10   9   8   7   6   5   4   3   2   1  11  10   9   8   7   6   5   4   3   2  12  11  10   9   8   7   6   5   4   3  13  12  11  10   9   8   7   6   5   4  14  13  12  11  10   9   8   7   6   5  
 1   2   3   4   5   6   7   8   9  10   0   1   2   3   4   5   6   7   8   9   1   2   3   4   5   6   7   8   9  10   2   3   4   5   6   7   8   9  10  11   3   4   5   6   7   8   9  10  11  12   4   5   6   7   8   9  10  11  12  13  
 2   1   2   3   4   5   6   7   8   9   1   0   1   2   3   4   5   6   7   8   2   1   2   3   4   5   6   7   8   9   3   2   3   4   5   6   7   8   9  10   4   3   4   5   6   7   8   9  10  11   5   4   5   6   7   8   9  10  11  12  
 3   2   1   2   3   4   5   6   7   8   2   1   0   1   2   3   4   5   6   7   3   2   1   2   3   4   5   6   7   8   4   3   2   3   4   5   6   7   8   9   5   4   3   4   5   6   7   8   9  10   6   5   4   5   6   7   8   9  10  11  
 4   3   2   1   2   3   4   5   6   7   3   2   1   0   1   2   3   4   5   6   4   3   2   1   2   3   4   5   6   7   5   4   3   2   3   4   5   6   7   8   6   5   4   3   4   5   6   7   8   9   7   6   5   4   5   6   7   8   9  10  
 5   4   3   2   1   2   3   4   5   6   4   3   2   1   0   1   2   3   4   5   5   4   3   2   1   2   3   4   5   6   6   5   4   3   2   3   4   5   6   7   7   6   5   4   3   4   5   6   7   8   8   7   6   5   4   5   6   7   8   9  
 6   5   4   3   2   1   2   3   4   5   5   4   3   2   1   0   1   2   3   4   6   5   4   3   2   1   2   3   4   5   7   6   5   4   3   2   3   4   5   6   8   7   6   5   4   3   4   5   6   7   9   8   7   6   5   4   5   6   7   8  
 7   6   5   4   3   2   1   2   3   4   6   5   4   3   2   1   0   1   2   3   7   6   5   4   3   2   1   2   3   4   8   7   6   5   4   3   2   3   4   5   9   8   7   6   5   4   3   4   5   6  10   9   8   7   6   5   4   5   6   7  
 8   7   6   5   4   3   2   1   2   3   7   6   5   4   3   2   1   0   1   2   8   7   6   5   4   3   2   1   2   3   9   8   7   6   5   4   3   2   3   4  10   9   8   7   6   5   4   3   4   5  11  10   9   8   7   6   5   4   5   6  
 9   8   7   6   5   4   3   2   1   2   8   7   6   5   4   3   2   1   0   1   9   8   7   6   5   4   3   2   1   2  10   9   8   7   6   5   4   3   2   3  11  10   9   8   7   6   5   4   3   4  12  11  10   9   8   7   6   5   4   5  
10   9   8   7   6   5   4   3   2   1   9   8   7   6   5   4   3   2   1   0  10   9   8   7   6   5   4   3   2   1  11  10   9   8   7   6   5   4   3   2  12  11  10   9   8   7   6   5   4   3  13  12  11  10   9   8   7   6   5   4  
 2   3   4   5   6   7   8   9  10  11   1   2   3   4   5   6   7   8   9  10   0   1   2   3   4   5   6   7   8   9   1   2   3   4   5   6   7   8   9  10   2   3   4   5   6   7   8   9  10  11   3   4   5   6   7   8   9  10  11  12  
 3   2   3   4   5   6   7   8   9  10   2   1   2   3   4   5   6   7   8   9   1   0   1   2   3   4   5   6   7   8   2   1   2   3   4   5   6   7   8   9   3   2   3   4   5   6   7   8   9  10   4   3   4   5   6   7   8   9  10  11  
 4   3   2   3   4   5   6   7   8   9   3   2   1   2   3   4   5   6   7   8   2   1   0   1   2   3   4   5   6   7   3   2   1   2   3   4   5   6   7   8   4   3   2   3   4   5   6   7   8   9   5   4   3   4   5   6   7   8   9  10  
 5   4   3   2   3   4   5   6   7   8   4   3   2   1   2   3   4   5   6   7   3   2   1   0   1   2   3   4   5   6   4   3   2   1   2   3   4   5   6   7   5   4   3   2   3   4   5   6   7   8   6   5   4   3   4   5   6   7   8   9  
 6   5   4   3   2   3   4   5   6   7   5   4   3   2   1   2   3   4   5   6   4   3   2   1   0   1   2   3   4   5   5   4   3   2   1   2   3   4   5   6   6   5   4   3   2   3   4   5   6   7   7   6   5   4   3   4   5   6   7   8  
 7   6   5   4   3   2   3   4   5   6   6   5   4   3   2   1   2   3   4   5   5   4   3   2   1   0   1   2   3   4   6   5   4   3   2   1   2   3   4   5   7   6   5   4   3   2   3   4   5   6   8   7   6   5   4   3   4   5   6   7  
 8   7   6   5   4   3   2   3   4   5   7   6   5   4   3   2   1   2   3   4   6   5   4   3   2   1   0   1   2   3   7   6   5   4   3   2   1   2   3   4   8   7   6   5   4   3   2   3   4   5   9   8   7   6   5   4   3   4   5   6  
 9   8   7   6   5   4   3   2   3   4   8   7   6   5   4   3   2   1   2   3   7   6   5   4   3   2   1   0   1   2   8   7   6   5   4   3   2   1   2   3   9   8   7   6   5   4   3   2   3   4  10   9   8   7   6   5   4   3   4   5  
10   9   8   7   6   5   4   3   2   3   9   8   7   6   5   4   3   2   1   2   8   7   6   5   4   3   2   1   0   1   9   8   7   6   5   4   3   2   1   2  10   9   8   7   6   5   4   3   2   3  11  10   9   8   7   6   5   4   3   4  
11  10   9   8   7   6   5   4   3   2  10   9   8   7   6   5   4   3   2   1   9   8   7   6   5   4   3   2   1   0  10   9   8   7   6   5   4   3   2   1  11  10   9   8   7   6   5   4   3   2  12  11  10   9   8   7   6   5   4   3  
 3   4   5   6   7   8   9  10  11  12   2   3   4   5   6   7   8   9  10  11   1   2   3   4   5   6   7   8   9  10   0   1   2   3   4   5   6   7   8   9   1   2   3   4   5   6   7   8   9  10   2   3   4   5   6   7   8   9  10  11  
 4   3   4   5   6   7   8   9  10  11   3   2   3   4   5   6   7   8   9  10   2   1   2   3   4   5   6   7   8   9   1   0   1   2   3   4   5   6   7   8   2   1   2   3   4   5   6   7   8   9   3   2   3   4   5   6   7   8   9  10  
 5   4   3   4   5   6   7   8   9  10   4   3   2   3   4   5   6   7   8   9   3   2   1   2   3   4   5   6   7   8   2   1   0   1   2   3   4   5   6   7   3   2   1   2   3   4   5   6   7   8   4   3   2   3   4   5   6   7   8   9  
 6   5   4   3   4   5   6   7   8   9   5   4   3   2   3   4   5   6   7   8   4   3   2   1   2   3   4   5   6   7   3   2   1   0   1   2   3   4   5   6   4   3   2   1   2   3   4   5   6   7   5   4   3   2   3   4   5   6   7   8  
 7   6   5   4   3   4   5   6   7   8   6   5   4   3   2   3   4   5   6   7   5   4   3   2   1   2   3   4   5   6   4   3   2   1   0   1   2   3   4   5   5   4   3   2   1   2   3   4   5   6   6   5   4   3   2   3   4   5   6   7  
 8   7   6   5   4   3   4   5   6   7   7   6   5   4   3   2   3   4   5   6   6   5   4   3   2   1   2   3   4   5   5   4   3   2   1   0   1   2   3   4   6   5   4   3   2   1   2   3   4   5   7   6   5   4   3   2   3   4   5   6  
 9   8   7   6   5   4   3   4   5   6   8   7   6   5   4   3   2   3   4   5   7   6   5   4   3   2   1   2   3   4   6   5   4   3   2   1   0   1   2   3   7   6   5   4   3   2   1   2   3   4   8   7   6   5   4   3   2   3   4   5  
10   9   8   7   6   5   4   3   4   5   9   8   7   6   5   4   3   2   3   4   8   7   6   5   4   3   2   1   2   3   7   6   5   4   3   2   1   0   1   2   8   7   6   5   4   3   2   1   2   3   9   8   7   6   5   4   3   2   3   4  
11  10   9   8   7   6   5   4   3   4  10   9   8   7   6   5   4   3   2   3   9   8   7   6   5   4   3   2   1   2   8   7   6   5   4   3   2   1   0   1   9   8   7   6   5   4   3   2   1   2  10   9   8   7   6   5   4   3   2   3  
12  11  10   9   8   7   6   5   4   3  11  10   9   8   7   6   5   4   3   2  10   9   8   7   6   5   4   3   2   1   9   8   7   6   5   4   3   2   1   0  10   9   8   7   6   5   4   3   2   1  11  10   9   8   7   6   5   4   3   2  
 4   5   6   7   8   9  10  11  12  13   3   4   5   6   7   8   9  10  11  12   2   3   4   5   6   7   8   9  10  11   1   2   3   4   5   6   7   8   9  10   0   1   2   3   4   5   6   7   8   9   1   2   3   4   5   6   7   8   9  10  
 5   4   5   6   7   8   9  10  11  12   4   3   4   5   6   7   8   9  10  11   3   2   3   4   5   6   7   8   9  10   2   1   2   3   4   5   6   7   8   9   1   0   1   2   3   4   5   6   7   8   2   1   2   3   4   5   6   7   8   9  
 6   5   4   5   6   7   8   9  10  11   5   4   3   4   5   6   7   8   9  10   4   3   2   3   4   5   6   7   8   9   3   2   1   2   3   4   5   6   7   8   2   1   0   1   2   3   4   5   6   7   3   2   1   2   3   4   5   6   7   8  
 7   6   5   4   5   6   7   8   9  10   6   5   4   3   4   5   6   7   8   9   5   4   3   2   3   4   5   6   7   8   4   3   2   1   2   3   4   5   6   7   3   2   1   0   1   2   3   4   5   6   4   3   2   1   2   3   4   5   6   7  
 8   7   6   5   4   5   6   7   8   9   7   6   5   4   3   4   5   6   7   8   6   5   4   3   2   3   4   5   6   7   5   4   3   2   1   2   3   4   5   6   4   3   2   1   0   1   2   3   4   5   5   4   3   2   1   2   3   4   5   6  
 9   8   7   6   5   4   5   6   7   8   8   7   6   5   4   3   4   5   6   7   7   6   5   4   3   2   3   4   5   6   6   5   4   3   2   1   2   3   4   5   5   4   3   2   1   0   1   2   3   4   6   5   4   3   2   1   2   3   4   5  
10   9   8   7   6   5   4   5   6   7   9   8   7   6   5   4   3   4   5   6   8   7   6   5   4   3   2   3   4   5   7   6   5   4   3   2   1   2   3   4   6   5   4   3   2   1   0   1   2   3   7   6   5   4   3   2   1   2   3   4  
11  10   9   8   7   6   5   4   5   6  10   9   8   7   6   5   4   3   4   5   9   8   7   6   5   4   3   2   3   4   8   7   6   5   4   3   2   1   2   3   7   6   5   4   3   2   1   0   1   2   8   7   6   5   4   3   2   1   2   3  
12  11  10   9   8   7   6   5   4   5  11  10   9   8   7   6   5   4   3   4  10   9   8   7   6   5   4   3   2   3   9   8   7   6   5   4   3   2   1   2   8   7   6   5   4   3   2   1   0   1   9   8   7   6   5   4   3   2   1   2  
13  12  11  10   9   8   7   6   5   4  12  11  10   9   8   7   6   5   4   3  11  10   9   8   7   6   5   4   3   2  10   9   8   7   6   5   4   3   2   1   9   8   7   6   5   4   3   2   1   0  10   9   8   7   6   5   4   3   2   1  
 5   6   7   8   9  10  11  12  13  14   4   5   6   7   8   9  10  11  12  13   3   4   5   6   7   8   9  10  11  12   2   3   4   5   6   7   8   9  10  11   1   2   3   4   5   6   7   8   9  10   0   1   2   3   4   5   6   7   8   9  
 6   5   6   7   8   9  10  11  12  13   5   4   5   6   7   8   9  10  11  12   4   3   4   5   6   7   8   9  10  11   3   2   3   4   5   6   7   8   9  10   2   1   2   3   4   5   6   7   8   9   1   0   1   2   3   4   5   6   7   8  
 7   6   5   6   7   8   9  10  11  12   6   5   4   5   6   7   8   9  10  11   5   4   3   4   5   6   7   8   9  10   4   3   2   3   4   5   6   7   8   9   3   2   1   2   3   4   5   6   7   8   2   1   0   1   2   3   4   5   6   7  
 8   7   6   5   6   7   8   9  10  11   7   6   5   4   5   6   7   8   9  10   6   5   4   3   4   5   6   7   8   9   5   4   3   2   3   4   5   6   7   8   4   3   2   1   2   3   4   5   6   7   3   2   1   0   1   2   3   4   5   6  
 9   8   7   6   5   6   7   8   9  10   8   7   6   5   4   5   6   7   8   9   7   6   5   4   3   4   5   6   7   8   6   5   4   3   2   3   4   5   6   7   5   4   3   2   1   2   3   4   5   6   4   3   2   1   0   1   2   3   4   5  
10   9   8   7   6   5   6   7   8   9   9   8   7   6   5   4   5   6   7   8   8   7   6   5   4   3   4   5   6   7   7   6   5   4   3   2   3   4   5   6   6   5   4   3   2   1   2   3   4   5   5   4   3   2   1   0   1   2   3   4  
11  10   9   8   7   6   5   6   7   8  10   9   8   7   6   5   4   5   6   7   9   8   7   6   5   4   3   4   5   6   8   7   6   5   4   3   2   3   4   5   7   6   5   4   3   2   1   2   3   4   6   5   4   3   2   1   0   1   2   3  
12  11  10   9   8   7   6   5   6   7  11  10   9   8   7   6   5   4   5   6  10   9   8   7   6   5   4   3   4   5   9   8   7   6   5   4   3   2   3   4   8   7   6   5   4   3   2   1   2   3   7   6   5   4   3   2   1   0   1   2  
13  12  11  10   9   8   7   6   5   6  12  11  10   9   8   7   6   5   4   5  11  10   9   8   7   6   5   4   3   4  10   9   8   7   6   5   4   3   2   3   9   8   7   6   5   4   3   2   1   2   8   7   6   5   4   3   2   1   0   1  
14  13  12  11  10   9   8   7   6   5  13  12  11  10   9   8   7   6   5   4  12  11  10   9   8   7   6   5   4   3  11  10   9   8   7   6   5   4   3   2  10   9   8   7   6   5   4   3   2   1   9   8   7   6   5   4   3   2   1   0  

 0   0   0  67   0   0   0  24   0  46   6  78  30   0   0   0  76   0  40   0   0  26  16   9   0   0   7  17   0   0  14   0   2  27   0   0  57  49  35   0   0   0  60   3  69  89   0  12  36   2  71   0  78  82  80   0   0   0  66   1  
 0   0   0   0   0   0   0   0   0   0   0   0   0   0   0   7   0  21   0   0  55  26   0   0  36   0   0   0   0  24   0  14   0   0   0   1   0  99   0   0   0   0   0   0   0   0   0   0   0   0   0   0   0   0   0  81  10   0   0   0  
 0   0   0   0   0   1   0  20  54   0   1   0   0   0   0   0   0  55   0  44   1   0   0   0   0   0   0   0   0   5   0  28   0   0   7   0  54   0   0   0  99   4   0   0   0   0  20  46   0   0   0   0   0   0   0  48   1   0   0   0  
17   0   0   0   0   0   0  75   0   0  19  65  55  93   1   0   6   0   1   0   0   0   1  39   0  94   5   9  13   0  70   0  15  84   0   0  32   0  51  18  77   0   1  34   0  87  53   1  27   2  33  44  15   0   1   0   0   0  35   0  
 0   0   0   0   0   0   1   0   0  76   0   0   4   0   0  15   0   0   0   0   0   1   0   0  17   0   0   0   0   0   0   0   0   0   0  79   0   1   0   0   0   0  81  49  11   7   0   0   0   0   1   0   0  57   0   0   0  74   0  38  
 0   0   1   0   0   0   0  51   0   0   0   0   0   0   0   0   0   0   0  38   0   0   0   0   0   1   0   0  44   0   0   0   0   0   1   0   3   0   0   0   7   2   0   0   0   0  75   9   0   0   0   0   0   0   0   0   0   0   0   0  
 0   0   0   0  81   0   0   0   0  11   0   0   0   0   0   0   0   0   0   0   0   0  90   0   0   0   0   0   0   0   0   0   0   0   0   0   0   0   0   0   0   0   0   0   3   0   0   0   0   0  15   0   0  32   0   0   0   5   0  35  
56   0  47  99   0  92   0   0   0   0   1  70  76   0   0   0  23   0  11  77   0   0   0  17   0  10   0   3  52   0  48   0  20   0  46   0  14   0   0   0   1   1   1  94   0  18  15   1   3  71   0   0  14   0   0   0   0   0  25   0  
 0   0  25   0   0   0   0   0   0   0  24   0   0   0   0   1   0  66   0   1   1   0   0   0   0   0   0   0   0   5   0   1   0   0  56   0  11   0   0   0   0  76   0   0   0   0  52  24   0   0   0   0   0   0   0  84  32   0   0   0  
90   0   0   0  66   0  72   0   0   0   0   0   1   0   0   0   0   0   0   0   0  16   1   0   1   0   0   0   0   0   0   0   0   0   0  30   0   1   0   0   0   0  11  16  78  34   0   0   0   0   6   0   5  23   0   0   0   1   0   5  
30   0  72  26   0   0   0  84   2   0   0   2  20   0   0  27   1   9  11   0   0  49  27  19   0  73   0   1   0  13   1   9   9   0   6  52   1  61   0   0  35   0   7  66   0   4  14  43   1  85   0   0   6   0   0   3  96   0  47   0  
47   0   0  92   0   0   0   1   0   0  24   0   2   0  15   0  55   0  94   0   0   0  31  90   0   0  13   8   0   0  61   0   5   1   0   0  72   0  10   0   0   0  44  54  55  42   0  41   1   3  75   0   9  29   7   0   0   0  59   1  
80   0   0  91  30   0   0   6   0  17   1  47   0   0   0   0  80   0  86   0   0   3   9   1   0   0   2   9   0   0   0   0   1  67   0   1  20   1  11   0   0   0  54  16  23  93   0  16  20  64  45   0   1   5  33   0   0  67  41   1  
 0   0   0  64   0   0   0   0   0   0   0   0   0   0   1   0   0   0  33   0   0   0   0   1   0   0  16  23  95   0   6   0  17   1   0   0   0   0  93  99   0   0   0   0   0   0   0   0   0   0   0  34   0   0  68   0   0   0   6   0  
 0   0   0  17   0   0   0   0   0   0   0  44   0  10   0   0   0   0  22   0   0   0   0   1   0   0  48  14   0   0  14   0   1   3   0   0   0   0   2  41   0   0   0   0   0   0   0   0   0  10   0   3   0   0  43   0   0   0  10   0  
 0  84   0   0  80   0   0   0  57   0   1   0   0   0   0   0  43  28   0   0  84  23   0   0  22   0   0   0   0  69   0  33   0   0  74  38  41  24   0   0   0   0   3   8   0  26   0  85  10   0   0   0   0   0   0  50   6   0   0   0  
 3   0   0  13   0   0   0  17   0   0  18  35  14   0   0  54   0   1   1   0   0  97   3  56   0   0   0  48   0   0  36   0   1  19   0   8  43   1   5   0   6   0  57   5  24   4   0  41  10   1  16   0   1   1  85   0   0   0   1  12  
 0   1  24   0   0   0   0   0  15   0   1   0   0   0   0  40  32   0   0   0  27   4   0   0   2   0   0   0   0   1   0   1   0   0  90  31  30  11   0   0   0   0  75   0   0  71  30   9   0   0   0   0   0   0   0  79  64   0   0   0  
15   0   0  11   0   0   0   3   0   0  79  29   1  13  22   0  24   0   0   0   0   0  19  10   0  51  80  63  25   0   1   0  39  47   0   0  73   0   1  61  75   0   0   0   0   0   0  69  18   1   0   5   1   0  21   0   0   0   2   0  
 0   0  15   0   0   1   0   1  26   0   0   0   0   0   0   0   0   0   0   0   0   0   0   0   0  21   0   0   0   0   0   0   0   0   2   0  10   0   0   0   1  80   0   0   0   0  84   1   0   0   0   0   0   0   0   0   0   0   0   0  
 0  33   1   0   0   0   0   0  30   0   0   0   0   0   0  21   0  59   0   0   0   0   0   0   0   0   0   0   0  94   0  91   0   0  33   0  97  25   0   0   0   0   0   0   0   0   1   1   0   0   0   0   0   0   0   7  57   0   0   0  
78  24   0   0  60   0   0   0   0   1   1   0   3   0   0  56  91  63   0   0   0   0   0   0  70   0   0   0   0   2   0  11   0   0   0  89   6  85   0   0   0   0   3   8   1  30   0  26   1   0   0   0   4   0   0  84   1   0   0   1  
 2   0   0   2   0   0  39   0   0  11  27   1  84   0   0   0  12   0  48   0   0   0   0   3   0   0  21  88   0   0   2   0   1  13   0   0   0   0   4   0   0   0  37  50  52   1   0   0  24  76   1   0   1   3  53   0   0   1  25  53  
45   0   0  15   0   0   0  30   0   0   1   1  91  93  12   0  63   0  90   0   0   0   4   0   0   1   3  11   0   0  37   0   1   7   0   0   8   0   5  24  30   0   2  26  16  25   0  41  97  29   1   0  11  54   8   0   0   0   1   0  
 0   7   0   0  72   0   0   0   0  80   0   0   0   0   0   4   0  21   0   0   0  47   0   0   0   0   0   0   0   0   0  10   0   0   0  54   0  61   0   0   0   0   2  46   2  85   0   0   0   0   0   0   0   0   0  26  24   0   0  90  
 0   0   0   1   0   9   0  28   0   0   6   0   0   0   0   0   0   0  42  33   0   0   0  42   0   0   0   4  47   0   7   0  52   0   0   0  48   0   0   0   4   5   0   0   0   0   1   1   0   0   0   1   0   0   0   0   0   0  28   0  
37   0   0  60   0   0   0   0   0   0   0   1   2  79  65   0   0   0  53   0   0   0  71  10   0   0   0  18   0   0   1   0   6  88   0   0   0   0   7   1   0   0   0   0   0   0   0   0  82  33  13   0  19   1   1   0   0   0   8   0  
84   0   0   3   0   0   0  17   0   0  63   5  88  10  62   0  41   0  68   0   0   0  18   1   0  72   1   0  11   0  64   0   8  32   0   0   1   0  82   3  37   0  74   1   0   1   0  76  69   1  52  13  10   1   6   0   0   0   1   0  
 0   0   0  25   0  11   0   4   0   0   0   0   0  14   0   0   0   0   6   0   0   0   0   0   0   2   0   1   0   0  43   0  35   0   0   0   0   0   0  47  64   0   0   0   0   0   0   0   0   0   0  12   0   0   0   0   0   0  93   0  
 0  73   3   0   0   0   0   0   1   0  55   0   0   0   0  25   0  75   0   0  15   1   0   0   0   0   0   0   0   0   0  42   0   0   1   0   2   1   0   0   0   0   0   0   0   0   2  14   0   0   0   0   0   0   0  50  20   0   0   0  
 1   0   0  27   0   0   0  38   0   0   2   2   0  78  60   0   1   0  78   0   0   0  88  24   0  99   2   5   2   0   0   0  18   1   0   0   0   0   1  98  14   0   0   0   0   0   0  91  83  36   0  82  37   0  54   0   0   0   1   0  
 0   1   1   0   0   0   0   0  12   0  18   0   0   0   0   9   0   3   0   0   1  31   0   0   1   0   0   0   0   1   0   0   0   0   2   4  47  38   0   0   0   0   0   0   0  52   0   1   0   0   0   0   0   0   0  69   1   0   0   0  
28   0   0   1   0   0   0   7   0   0   1  59   1  33   1   0  98   0  26   0   0   0  12  59   0   1   4   5  48   0   5   0   0  19   0   0  13   0  46   1  24   0  83  26   2  48   0  61  41  25  67   0  68  11   5   0   0   0  19   0  
23   0   0  27   0   0   0   0   0   0   0  26  23   1   1   0   2   0   5   0   0   0   2   9   0   0  60  34   0   0  18   0  45   0   0   0   0   0  34  12   0   0   8  21  47   1   0   0   1  98   5   0  32  70   1   0   0   0  79   0  
 0   0  41   0   0   7   0  46  40   0  25   0   0   0   0   1   0  41   0   8   1   0   0   0   0   0   0   0   0   3   0   5   0   0   0   0   2   0   0   0   5  47   0   0   0   0   1  73   0   0   0   0   0   0   0  76  81   0   0   0  
 0   1   0   0   1   0   0   0   0   1  23   0  97   0   0  84  81  47   0   0   0   1   0   0   1   0   0   0   0   0   0  32   0   0   0   0   0  17   0   0   0   0  47  60  68   3   0   0  67   0   0   0   9   0   0  67   1  22   0   1  
47   0  55  52   0   1   0  78   9   0  19  13  64   0   0  80  26  14   5  74  35  62   0   1   0  43   0   3   0  71   0  45  79   0  94   0   0   8   0   0  26  15   1   1   0  55  18   8  72  44   0   0  44   0   0  35   1   0   9   0  
19  84   0   0  31   0   0   0   0  25  71   0  30   0   0  31  78   1   0   0  41  87   0   0  64   0   0   0   0  10   0  13   0   0   0  57   1   0   0   0   0   0   3  65  20   5   0   1  92   0   0   0  27   0   0   1  29   0   0  23  
58   0   0  44   0   0   0   0   0   0   0   1  75  12   7   0  26   0  38   0   0   0   1  10   0   0   6  82   0   0  49   0  91  32   0   0   0   0   0  23   0   0  18   1  49   0   0   0   2   1  12   0  24   6   1   0   0   0   7   0  
 0   0   0  36   0   0   0   0   0   0   0   0   0  50   1   0   0   0  82   0   0   0   0  10   0   0  91  11   1   0  69   0   9  19   0   0   0   0  25   0   0   0   0   0   0   0   0   0   0   0   0   4   0   0   1   0   0   0   8   0  
 0   0  64   2   0  38   0  69   0   0   7   0   0   0   0   0  94   0  59  40   0   0   0   6   0   1   0   1   2   0  81   0  64   0  60   0  98   0   0   0   0  22   0   0   0   0   4  22  69   0   0   0   0   0   0   0   0   0   1   0  
 0   0  30   0   0  56   0   1   6   0   0   0   0   0   0   0   0   0   0  14   0   0   0   0   0  81   0   0   0   0   0   0   0   0  52   0  87   0   0   0   1   0   0   0   0   0  13   1   0   0   0   0   0   0   0   0   0   0   0   0  
 6   0   0  82  33   0   0  29   0  15   1  16   8   0   0   8  27   1   0   0   0  14   1   3  27   0   0   1   0   0   0   0  87  76   0   4  72  15  77   0   0   0   0   6  47  39   0  37  78  39   1   0  11  55  34  64   1   0   1   1  
 5   0   0   1  22   0   0  66   0  92   1  13  55   0   0   3  36   0   0   0   0  38   1  35   1   0   0  71   0   0   0   0   1  57   0   1  54  28   1   0   0   0   7   0   1   2   0   1   1  58   6   0  10   4  42   0   0   7  10  26  
 1   0   0   0   1   0  18   0   0  13   0   1  68   0   0   0   3   0   0   0   0  62   2  21  67   0   0   0   0   0   0   0  21  37   0  76   0  98  53   0   0   0   8   1   0  56   0   0  12   1  25   0   1  67   2   0   0   1   0  19  
 1   0   0  34   9   0   0  27   0  76  93   1  53   0   0   6   6  69   0   0   0   8  12  74  22   0   0  89   0   0   0   1   8   4   0  62  47   1   0   0   0   0  50  24   1   0   0  22  14  61   1   0  75  11   1   2   9   0   1  22  
 0   0  95   7   0  81   0  62  90   0   1   0   0   0   0   0   0   1   0   4  33   0   0   0   0  25   0   0   0  91   0   0   0   0  69   0   9   0   0   0  70  89   0   0   0   0   0  42   0   0   0   0   0   0   0  24   0   0   0   0  
17   0  43  16   0  17   0   5  35   0  72   1   1   0   0  65  58  80  53   1  24  60   0  30   0  69   0   1   0  40  51  54  12   0   9   0  96  20   0   0   6   2   1  62   0   1  75   0  19  22   0   0  15   0   0  22  54   0   6   0  
 1   0   0  85   0   0   0  98   0   0   1  54  35   0   0   2  69   0  13   0   0   3   1   1   0   0   5  46   0   0  37   0  18  64   0   1  59  56   1   0  49   0   2   1   2  52   0   2   0  14   1   0  36   1   9   0   0   0  27   1  
 3   0   0  12   0   0   0  18   0   0   1  67   1   0  78   0   1   0   1   0   0   0  67  11   0   0   5  46   0   0  70   0   5   1   0   0  34   0  53   0   0   0   2  19  97  15   0   1  49   0  14   0  32   8  55   0   0   0  16   1  
35   0   0   7  24   0  13   0   0   7   0  35   1   0   0   0   1   0   0   0   0   0   3  18   0   0   1  28   0   0   0   0  71  16   0   0   0   0   2   0   0   0   1   1  32   4   0   0   9   5   0   0  22   1  51   0   0   8   1  43  
 0   0   0  70   0   0   0   0   0   0   0   0   0   9   9   0   0   0   2   0   0   0   0   0   0   8   0  41   1   0  11   0   0   0   0   0   0   0   0   2   0   0   0   0   0   0   0   0   0   0   0   0   0   0   0   0   0   0  56   0  
37   0   0  74   0   0   0   6   0  59  24   8  65   0   0   0  14   0  37   0   0  36  30  90   0   0  10  96   0   0  31   0   2  13   0  88  94  17   1   0   0   0  51   6  26  54   0  50   5  22  93   0   0  37  20   0   0   0  78   6  
23   0   0   0  83   0  11   0   0   8   0  63  40   0   0   0  54   0   0   0   0   0  27  16   0   0  69  36   0   0   0   0  82  12   0   0   0   0  23   0   0   0  15  45  14  96   0   0   1   5  80   0   1   0   9   0   0  28   5   1  
97   0   0  19   0   0   0   0   0   0   0  69  35  19  40   0  41   0   1   0   0   0   1  44   0   0  43  27   0   0   1   0  33  10   0   0   0   0  64  31   0   0  31   1  81   1   0   0  52  92   3   0   1  83   0   0   0   0  77   0  
 0  14   3   0   0   0   0   0   1   0  23   0   0   0   0  61   0  95   0   0  29  51   0   0  10   0   0   0   0   1   0  72   0   0  54  69  82   4   0   0   0   0   1   0   0  84  27   1   0   0   0   0   0   0   0   0  59   0   0   0  
 0   1  85   0   0   0   0   0  32   0   1   0   0   0   0   3   0  75   0   0  46   1   0   0   1   0   0   0   0   1   0  31   0   0   7  82  90  20   0   0   0   0  81   0   0   8   0  97   0   0   0   0   0   0   0  79   0   0   0   0  
 0   0   0   0  49   0   2   0   0  13   0   0   5   0   0   0   0   0   0   0   0   0   4   0   0   0   0   0   0   0   0   0   0   0   0  48   0   0   0   0   0   0   0  10  31   0   0   0   0   0  41   0   0   1   0   0   0   0   0  29  
10   0   0  25   0   0   0   1   0   0  70  82  17  33  25   0  11   0   1   0   0   0  88  67   0  15  70  41   8   0  22   0  80   1   0   0  20   0   8  56  31   0   4   1   0   6   0  55  86  84  12  13   4   1  87   0   0   0   0   0  
69   0   0   0   2   0  30   0   0  99   0  55  89   0   0   0   9   0   0   0   0   2  22   0  48   0   0   0   0   0   0   0   0   0   0  12   0   7   0   0   0   0   1  24   3   4   0   0  12   1   1   0  82  93   0   0   0   1   0   0  
